/* Objective function */
min: c;

c=3.82777515214332*user3_task10_time0+3.21959665794483*user3_task10_time1+3.21959665794483*user4_task1_time1+3.04259384326658*user3_task4_time2+3.04259384326658*user3_task10_time2+3.04259384326658*user4_task1_time2+3.04259384326658*user5_task4_time2+3.04259384326658*user5_task7_time2+3.17982511619084*user2_task7_time3+3.17982511619084*user3_task4_time3+3.17982511619084*user3_task10_time3+3.17982511619084*user4_task1_time3+3.17982511619084*user5_task4_time3+3.17982511619084*user5_task7_time3+3.46885280267708*user1_task7_time4+3.46885280267708*user2_task7_time4+3.46885280267708*user3_task4_time4+3.46885280267708*user3_task10_time4+3.46885280267708*user4_task1_time4+3.46885280267708*user4_task10_time4+3.46885280267708*user5_task1_time4+3.46885280267708*user5_task3_time4+3.46885280267708*user5_task4_time4+3.46885280267708*user5_task7_time4+3.25331514646487*user1_task7_time5+3.25331514646487*user2_task2_time5+3.25331514646487*user2_task3_time5+3.25331514646487*user2_task7_time5+3.25331514646487*user3_task4_time5+3.25331514646487*user3_task10_time5+3.25331514646487*user4_task1_time5+3.25331514646487*user4_task10_time5+3.25331514646487*user5_task1_time5+3.25331514646487*user5_task3_time5+3.25331514646487*user5_task4_time5+3.25331514646487*user5_task7_time5+4.38247645886552*user1_task5_time6+4.38247645886552*user1_task7_time6+4.38247645886552*user2_task2_time6+4.38247645886552*user2_task3_time6+4.38247645886552*user2_task4_time6+4.38247645886552*user2_task7_time6+4.38247645886552*user2_task10_time6+4.38247645886552*user3_task4_time6+4.38247645886552*user3_task10_time6+4.38247645886552*user4_task1_time6+4.38247645886552*user4_task10_time6+4.38247645886552*user5_task1_time6+4.38247645886552*user5_task3_time6+4.38247645886552*user5_task4_time6+4.38247645886552*user5_task6_time6+4.38247645886552*user5_task7_time6+4.01283875311857*user1_task5_time7+4.01283875311857*user1_task7_time7+4.01283875311857*user1_task9_time7+4.01283875311857*user2_task2_time7+4.01283875311857*user2_task3_time7+4.01283875311857*user2_task4_time7+4.01283875311857*user2_task7_time7+4.01283875311857*user2_task10_time7+4.01283875311857*user3_task4_time7+4.01283875311857*user3_task9_time7+4.01283875311857*user3_task10_time7+4.01283875311857*user4_task1_time7+4.01283875311857*user4_task10_time7+4.01283875311857*user5_task1_time7+4.01283875311857*user5_task3_time7+4.01283875311857*user5_task4_time7+4.01283875311857*user5_task6_time7+5.72858630267492*user1_task5_time8+5.72858630267492*user1_task7_time8+5.72858630267492*user1_task9_time8+5.72858630267492*user1_task10_time8+5.72858630267492*user2_task2_time8+5.72858630267492*user2_task3_time8+5.72858630267492*user2_task4_time8+5.72858630267492*user2_task7_time8+5.72858630267492*user2_task10_time8+5.72858630267492*user3_task4_time8+5.72858630267492*user3_task9_time8+5.72858630267492*user4_task1_time8+5.72858630267492*user4_task9_time8+5.72858630267492*user4_task10_time8+5.72858630267492*user5_task1_time8+5.72858630267492*user5_task3_time8+5.72858630267492*user5_task4_time8+5.72858630267492*user5_task6_time8+4.76077867036614*user1_task5_time9+4.76077867036614*user1_task7_time9+4.76077867036614*user1_task9_time9+4.76077867036614*user1_task10_time9+4.76077867036614*user2_task2_time9+4.76077867036614*user2_task3_time9+4.76077867036614*user2_task4_time9+4.76077867036614*user2_task7_time9+4.76077867036614*user2_task10_time9+4.76077867036614*user3_task4_time9+4.76077867036614*user3_task9_time9+4.76077867036614*user4_task9_time9+4.76077867036614*user4_task10_time9+4.76077867036614*user5_task1_time9+4.76077867036614*user5_task3_time9+4.76077867036614*user5_task4_time9+4.76077867036614*user5_task6_time9+5.87747414643875*user1_task5_time10+5.87747414643875*user1_task7_time10+5.87747414643875*user1_task9_time10+5.87747414643875*user1_task10_time10+5.87747414643875*user2_task2_time10+5.87747414643875*user2_task3_time10+5.87747414643875*user2_task4_time10+5.87747414643875*user2_task7_time10+5.87747414643875*user2_task10_time10+5.87747414643875*user3_task4_time10+5.87747414643875*user3_task6_time10+5.87747414643875*user3_task9_time10+5.87747414643875*user4_task9_time10+5.87747414643875*user4_task10_time10+5.87747414643875*user5_task1_time10+5.87747414643875*user5_task3_time10+5.87747414643875*user5_task4_time10+5.87747414643875*user5_task6_time10+3.6240017754808*user1_task5_time11+3.6240017754808*user1_task9_time11+3.6240017754808*user1_task10_time11+3.6240017754808*user2_task1_time11+3.6240017754808*user2_task2_time11+3.6240017754808*user2_task3_time11+3.6240017754808*user2_task4_time11+3.6240017754808*user2_task7_time11+3.6240017754808*user2_task10_time11+3.6240017754808*user3_task3_time11+3.6240017754808*user3_task4_time11+3.6240017754808*user3_task6_time11+3.6240017754808*user3_task9_time11+3.6240017754808*user4_task2_time11+3.6240017754808*user4_task4_time11+3.6240017754808*user4_task9_time11+3.6240017754808*user4_task10_time11+3.6240017754808*user5_task1_time11+3.6240017754808*user5_task3_time11+3.6240017754808*user5_task4_time11+3.6240017754808*user5_task6_time11+5.77368517918127*user1_task4_time12+5.77368517918127*user1_task5_time12+5.77368517918127*user1_task8_time12+5.77368517918127*user1_task9_time12+5.77368517918127*user1_task10_time12+5.77368517918127*user2_task1_time12+5.77368517918127*user2_task3_time12+5.77368517918127*user2_task4_time12+5.77368517918127*user2_task7_time12+5.77368517918127*user3_task3_time12+5.77368517918127*user3_task4_time12+5.77368517918127*user3_task6_time12+5.77368517918127*user3_task9_time12+5.77368517918127*user4_task2_time12+5.77368517918127*user4_task3_time12+5.77368517918127*user4_task4_time12+5.77368517918127*user4_task8_time12+5.77368517918127*user4_task9_time12+5.77368517918127*user4_task10_time12+5.77368517918127*user5_task1_time12+5.77368517918127*user5_task3_time12+5.77368517918127*user5_task4_time12+5.77368517918127*user5_task6_time12+4.30932124023077*user1_task4_time13+4.30932124023077*user1_task8_time13+4.30932124023077*user1_task9_time13+4.30932124023077*user1_task10_time13+4.30932124023077*user2_task1_time13+4.30932124023077*user2_task3_time13+4.30932124023077*user2_task4_time13+4.30932124023077*user2_task7_time13+4.30932124023077*user2_task9_time13+4.30932124023077*user3_task3_time13+4.30932124023077*user3_task4_time13+4.30932124023077*user3_task5_time13+4.30932124023077*user3_task6_time13+4.30932124023077*user3_task9_time13+4.30932124023077*user4_task2_time13+4.30932124023077*user4_task3_time13+4.30932124023077*user4_task4_time13+4.30932124023077*user4_task8_time13+4.30932124023077*user4_task9_time13+4.30932124023077*user5_task1_time13+4.30932124023077*user5_task3_time13+4.30932124023077*user5_task4_time13+4.30932124023077*user5_task6_time13+4.30932124023077*user5_task8_time13+5.83966899737267*user1_task4_time14+5.83966899737267*user1_task8_time14+5.83966899737267*user1_task9_time14+5.83966899737267*user1_task10_time14+5.83966899737267*user2_task1_time14+5.83966899737267*user2_task3_time14+5.83966899737267*user2_task4_time14+5.83966899737267*user2_task7_time14+5.83966899737267*user2_task9_time14+5.83966899737267*user3_task3_time14+5.83966899737267*user3_task4_time14+5.83966899737267*user3_task5_time14+5.83966899737267*user3_task6_time14+5.83966899737267*user3_task9_time14+5.83966899737267*user4_task2_time14+5.83966899737267*user4_task3_time14+5.83966899737267*user4_task4_time14+5.83966899737267*user4_task8_time14+5.83966899737267*user4_task9_time14+5.83966899737267*user5_task1_time14+5.83966899737267*user5_task3_time14+5.83966899737267*user5_task4_time14+5.83966899737267*user5_task6_time14+5.83966899737267*user5_task8_time14+6.26169140036197*user1_task4_time15+6.26169140036197*user1_task8_time15+6.26169140036197*user2_task1_time15+6.26169140036197*user2_task3_time15+6.26169140036197*user2_task4_time15+6.26169140036197*user2_task7_time15+6.26169140036197*user2_task9_time15+6.26169140036197*user3_task2_time15+6.26169140036197*user3_task3_time15+6.26169140036197*user3_task4_time15+6.26169140036197*user3_task5_time15+6.26169140036197*user3_task6_time15+6.26169140036197*user3_task9_time15+6.26169140036197*user4_task2_time15+6.26169140036197*user4_task3_time15+6.26169140036197*user4_task4_time15+6.26169140036197*user4_task8_time15+6.26169140036197*user4_task9_time15+6.26169140036197*user5_task1_time15+6.26169140036197*user5_task3_time15+6.26169140036197*user5_task4_time15+6.26169140036197*user5_task6_time15+6.26169140036197*user5_task8_time15+6.26169140036197*user5_task9_time15+6.15252586879726*user1_task4_time16+6.15252586879726*user1_task8_time16+6.15252586879726*user2_task1_time16+6.15252586879726*user2_task3_time16+6.15252586879726*user2_task4_time16+6.15252586879726*user2_task7_time16+6.15252586879726*user2_task9_time16+6.15252586879726*user3_task2_time16+6.15252586879726*user3_task4_time16+6.15252586879726*user3_task5_time16+6.15252586879726*user3_task6_time16+6.15252586879726*user3_task9_time16+6.15252586879726*user4_task2_time16+6.15252586879726*user4_task3_time16+6.15252586879726*user4_task4_time16+6.15252586879726*user4_task5_time16+6.15252586879726*user4_task8_time16+6.15252586879726*user4_task9_time16+6.15252586879726*user5_task1_time16+6.15252586879726*user5_task3_time16+6.15252586879726*user5_task4_time16+6.15252586879726*user5_task5_time16+6.15252586879726*user5_task6_time16+6.15252586879726*user5_task8_time16+6.15252586879726*user5_task9_time16+5.88566790240526*user1_task4_time17+5.88566790240526*user1_task8_time17+5.88566790240526*user2_task1_time17+5.88566790240526*user2_task3_time17+5.88566790240526*user2_task4_time17+5.88566790240526*user2_task7_time17+5.88566790240526*user2_task9_time17+5.88566790240526*user3_task2_time17+5.88566790240526*user3_task4_time17+5.88566790240526*user3_task6_time17+5.88566790240526*user3_task9_time17+5.88566790240526*user4_task2_time17+5.88566790240526*user4_task3_time17+5.88566790240526*user4_task5_time17+5.88566790240526*user4_task8_time17+5.88566790240526*user4_task9_time17+5.88566790240526*user5_task1_time17+5.88566790240526*user5_task5_time17+5.88566790240526*user5_task6_time17+5.88566790240526*user5_task8_time17+5.88566790240526*user5_task9_time17+5.88566790240526*user5_task10_time17+6.94232320601809*user1_task2_time18+6.94232320601809*user1_task4_time18+6.94232320601809*user1_task6_time18+6.94232320601809*user1_task8_time18+6.94232320601809*user2_task1_time18+6.94232320601809*user2_task3_time18+6.94232320601809*user2_task4_time18+6.94232320601809*user2_task6_time18+6.94232320601809*user2_task7_time18+6.94232320601809*user3_task2_time18+6.94232320601809*user3_task6_time18+6.94232320601809*user3_task9_time18+6.94232320601809*user4_task2_time18+6.94232320601809*user4_task3_time18+6.94232320601809*user4_task5_time18+6.94232320601809*user4_task8_time18+6.94232320601809*user4_task9_time18+6.94232320601809*user5_task1_time18+6.94232320601809*user5_task2_time18+6.94232320601809*user5_task5_time18+6.94232320601809*user5_task6_time18+6.94232320601809*user5_task9_time18+6.94232320601809*user5_task10_time18+5.36123945149729*user1_task2_time19+5.36123945149729*user1_task3_time19+5.36123945149729*user1_task4_time19+5.36123945149729*user1_task6_time19+5.36123945149729*user2_task1_time19+5.36123945149729*user2_task3_time19+5.36123945149729*user2_task4_time19+5.36123945149729*user2_task5_time19+5.36123945149729*user2_task6_time19+5.36123945149729*user2_task7_time19+5.36123945149729*user3_task2_time19+5.36123945149729*user3_task9_time19+5.36123945149729*user4_task2_time19+5.36123945149729*user4_task3_time19+5.36123945149729*user4_task6_time19+5.36123945149729*user4_task8_time19+5.36123945149729*user4_task9_time19+5.36123945149729*user5_task1_time19+5.36123945149729*user5_task2_time19+5.36123945149729*user5_task5_time19+5.36123945149729*user5_task9_time19+5.36123945149729*user5_task10_time19+5.92950490199927*user1_task1_time20+5.92950490199927*user1_task2_time20+5.92950490199927*user1_task3_time20+5.92950490199927*user1_task4_time20+5.92950490199927*user1_task6_time20+5.92950490199927*user2_task1_time20+5.92950490199927*user2_task3_time20+5.92950490199927*user2_task4_time20+5.92950490199927*user2_task6_time20+5.92950490199927*user2_task7_time20+5.92950490199927*user3_task1_time20+5.92950490199927*user3_task2_time20+5.92950490199927*user3_task8_time20+5.92950490199927*user3_task9_time20+5.92950490199927*user4_task2_time20+5.92950490199927*user4_task6_time20+5.92950490199927*user4_task9_time20+5.92950490199927*user5_task1_time20+5.92950490199927*user5_task2_time20+5.92950490199927*user5_task5_time20+5.92950490199927*user5_task9_time20+5.92950490199927*user5_task10_time20+5.51699425461313*user1_task1_time21+5.51699425461313*user1_task2_time21+5.51699425461313*user1_task3_time21+5.51699425461313*user2_task1_time21+5.51699425461313*user2_task3_time21+5.51699425461313*user2_task6_time21+5.51699425461313*user2_task7_time21+5.51699425461313*user2_task8_time21+5.51699425461313*user3_task1_time21+5.51699425461313*user3_task2_time21+5.51699425461313*user3_task7_time21+5.51699425461313*user3_task8_time21+5.51699425461313*user3_task9_time21+5.51699425461313*user4_task6_time21+5.51699425461313*user5_task2_time21+5.51699425461313*user5_task5_time21+5.51699425461313*user5_task9_time21+5.51699425461313*user5_task10_time21+6.00294159370126*user1_task1_time22+6.00294159370126*user1_task2_time22+6.00294159370126*user2_task1_time22+6.00294159370126*user2_task3_time22+6.00294159370126*user2_task7_time22+6.00294159370126*user2_task8_time22+6.00294159370126*user3_task1_time22+6.00294159370126*user3_task7_time22+6.00294159370126*user3_task8_time22+6.00294159370126*user4_task6_time22+6.00294159370126*user4_task7_time22+6.00294159370126*user5_task2_time22+6.00294159370126*user5_task5_time22+6.00294159370126*user5_task9_time22+6.00294159370126*user5_task10_time22+5.27332479129281*user1_task1_time23+5.27332479129281*user1_task2_time23+5.27332479129281*user2_task3_time23+5.27332479129281*user2_task7_time23+5.27332479129281*user2_task8_time23+5.27332479129281*user3_task1_time23+5.27332479129281*user3_task7_time23+5.27332479129281*user3_task8_time23+5.27332479129281*user4_task6_time23+5.27332479129281*user4_task7_time23+5.27332479129281*user5_task5_time23+5.27332479129281*user5_task9_time23+5.27332479129281*user5_task10_time23;
user1_task1_time20+user1_task1_time21+user1_task1_time22+user1_task1_time23=1;
user1_task2_time18+user1_task2_time19+user1_task2_time20+user1_task2_time21+user1_task2_time22+user1_task2_time23=2;
user1_task3_time19+user1_task3_time20+user1_task3_time21=1;
user1_task4_time12+user1_task4_time13+user1_task4_time14+user1_task4_time15+user1_task4_time16+user1_task4_time17+user1_task4_time18+user1_task4_time19+user1_task4_time20=3;
user1_task5_time6+user1_task5_time7+user1_task5_time8+user1_task5_time9+user1_task5_time10+user1_task5_time11+user1_task5_time12=3;
user1_task6_time18+user1_task6_time19+user1_task6_time20=2;
user1_task7_time4+user1_task7_time5+user1_task7_time6+user1_task7_time7+user1_task7_time8+user1_task7_time9+user1_task7_time10=2;
user1_task8_time12+user1_task8_time13+user1_task8_time14+user1_task8_time15+user1_task8_time16+user1_task8_time17+user1_task8_time18=2;
user1_task9_time7+user1_task9_time8+user1_task9_time9+user1_task9_time10+user1_task9_time11+user1_task9_time12+user1_task9_time13+user1_task9_time14=3;
user1_task10_time8+user1_task10_time9+user1_task10_time10+user1_task10_time11+user1_task10_time12+user1_task10_time13+user1_task10_time14=3;
user2_task1_time11+user2_task1_time12+user2_task1_time13+user2_task1_time14+user2_task1_time15+user2_task1_time16+user2_task1_time17+user2_task1_time18+user2_task1_time19+user2_task1_time20+user2_task1_time21+user2_task1_time22=2;
user2_task2_time5+user2_task2_time6+user2_task2_time7+user2_task2_time8+user2_task2_time9+user2_task2_time10+user2_task2_time11=2;
user2_task3_time5+user2_task3_time6+user2_task3_time7+user2_task3_time8+user2_task3_time9+user2_task3_time10+user2_task3_time11+user2_task3_time12+user2_task3_time13+user2_task3_time14+user2_task3_time15+user2_task3_time16+user2_task3_time17+user2_task3_time18+user2_task3_time19+user2_task3_time20+user2_task3_time21+user2_task3_time22+user2_task3_time23=1;
user2_task4_time6+user2_task4_time7+user2_task4_time8+user2_task4_time9+user2_task4_time10+user2_task4_time11+user2_task4_time12+user2_task4_time13+user2_task4_time14+user2_task4_time15+user2_task4_time16+user2_task4_time17+user2_task4_time18+user2_task4_time19+user2_task4_time20=3;
user2_task5_time19=1;
user2_task6_time18+user2_task6_time19+user2_task6_time20+user2_task6_time21=2;
user2_task7_time3+user2_task7_time4+user2_task7_time5+user2_task7_time6+user2_task7_time7+user2_task7_time8+user2_task7_time9+user2_task7_time10+user2_task7_time11+user2_task7_time12+user2_task7_time13+user2_task7_time14+user2_task7_time15+user2_task7_time16+user2_task7_time17+user2_task7_time18+user2_task7_time19+user2_task7_time20+user2_task7_time21+user2_task7_time22+user2_task7_time23=3;
user2_task8_time21+user2_task8_time22+user2_task8_time23=2;
user2_task9_time13+user2_task9_time14+user2_task9_time15+user2_task9_time16+user2_task9_time17=1;
user2_task10_time6+user2_task10_time7+user2_task10_time8+user2_task10_time9+user2_task10_time10+user2_task10_time11=2;
user3_task1_time20+user3_task1_time21+user3_task1_time22+user3_task1_time23=2;
user3_task2_time15+user3_task2_time16+user3_task2_time17+user3_task2_time18+user3_task2_time19+user3_task2_time20+user3_task2_time21=3;
user3_task3_time11+user3_task3_time12+user3_task3_time13+user3_task3_time14+user3_task3_time15=2;
user3_task4_time2+user3_task4_time3+user3_task4_time4+user3_task4_time5+user3_task4_time6+user3_task4_time7+user3_task4_time8+user3_task4_time9+user3_task4_time10+user3_task4_time11+user3_task4_time12+user3_task4_time13+user3_task4_time14+user3_task4_time15+user3_task4_time16+user3_task4_time17=3;
user3_task5_time13+user3_task5_time14+user3_task5_time15+user3_task5_time16=2;
user3_task6_time10+user3_task6_time11+user3_task6_time12+user3_task6_time13+user3_task6_time14+user3_task6_time15+user3_task6_time16+user3_task6_time17+user3_task6_time18=2;
user3_task7_time21+user3_task7_time22+user3_task7_time23=2;
user3_task8_time20+user3_task8_time21+user3_task8_time22+user3_task8_time23=1;
user3_task9_time7+user3_task9_time8+user3_task9_time9+user3_task9_time10+user3_task9_time11+user3_task9_time12+user3_task9_time13+user3_task9_time14+user3_task9_time15+user3_task9_time16+user3_task9_time17+user3_task9_time18+user3_task9_time19+user3_task9_time20+user3_task9_time21=2;
user3_task10_time0+user3_task10_time1+user3_task10_time2+user3_task10_time3+user3_task10_time4+user3_task10_time5+user3_task10_time6+user3_task10_time7=3;
user4_task1_time1+user4_task1_time2+user4_task1_time3+user4_task1_time4+user4_task1_time5+user4_task1_time6+user4_task1_time7+user4_task1_time8=1;
user4_task2_time11+user4_task2_time12+user4_task2_time13+user4_task2_time14+user4_task2_time15+user4_task2_time16+user4_task2_time17+user4_task2_time18+user4_task2_time19+user4_task2_time20=2;
user4_task3_time12+user4_task3_time13+user4_task3_time14+user4_task3_time15+user4_task3_time16+user4_task3_time17+user4_task3_time18+user4_task3_time19=3;
user4_task4_time11+user4_task4_time12+user4_task4_time13+user4_task4_time14+user4_task4_time15+user4_task4_time16=3;
user4_task5_time16+user4_task5_time17+user4_task5_time18=1;
user4_task6_time19+user4_task6_time20+user4_task6_time21+user4_task6_time22+user4_task6_time23=3;
user4_task7_time22+user4_task7_time23=1;
user4_task8_time12+user4_task8_time13+user4_task8_time14+user4_task8_time15+user4_task8_time16+user4_task8_time17+user4_task8_time18+user4_task8_time19=2;
user4_task9_time8+user4_task9_time9+user4_task9_time10+user4_task9_time11+user4_task9_time12+user4_task9_time13+user4_task9_time14+user4_task9_time15+user4_task9_time16+user4_task9_time17+user4_task9_time18+user4_task9_time19+user4_task9_time20=2;
user4_task10_time4+user4_task10_time5+user4_task10_time6+user4_task10_time7+user4_task10_time8+user4_task10_time9+user4_task10_time10+user4_task10_time11+user4_task10_time12=2;
user5_task1_time4+user5_task1_time5+user5_task1_time6+user5_task1_time7+user5_task1_time8+user5_task1_time9+user5_task1_time10+user5_task1_time11+user5_task1_time12+user5_task1_time13+user5_task1_time14+user5_task1_time15+user5_task1_time16+user5_task1_time17+user5_task1_time18+user5_task1_time19+user5_task1_time20=1;
user5_task2_time18+user5_task2_time19+user5_task2_time20+user5_task2_time21+user5_task2_time22=3;
user5_task3_time4+user5_task3_time5+user5_task3_time6+user5_task3_time7+user5_task3_time8+user5_task3_time9+user5_task3_time10+user5_task3_time11+user5_task3_time12+user5_task3_time13+user5_task3_time14+user5_task3_time15+user5_task3_time16=1;
user5_task4_time2+user5_task4_time3+user5_task4_time4+user5_task4_time5+user5_task4_time6+user5_task4_time7+user5_task4_time8+user5_task4_time9+user5_task4_time10+user5_task4_time11+user5_task4_time12+user5_task4_time13+user5_task4_time14+user5_task4_time15+user5_task4_time16=3;
user5_task5_time16+user5_task5_time17+user5_task5_time18+user5_task5_time19+user5_task5_time20+user5_task5_time21+user5_task5_time22+user5_task5_time23=2;
user5_task6_time6+user5_task6_time7+user5_task6_time8+user5_task6_time9+user5_task6_time10+user5_task6_time11+user5_task6_time12+user5_task6_time13+user5_task6_time14+user5_task6_time15+user5_task6_time16+user5_task6_time17+user5_task6_time18=2;
user5_task7_time2+user5_task7_time3+user5_task7_time4+user5_task7_time5+user5_task7_time6=1;
user5_task8_time13+user5_task8_time14+user5_task8_time15+user5_task8_time16+user5_task8_time17=3;
user5_task9_time15+user5_task9_time16+user5_task9_time17+user5_task9_time18+user5_task9_time19+user5_task9_time20+user5_task9_time21+user5_task9_time22+user5_task9_time23=1;
user5_task10_time17+user5_task10_time18+user5_task10_time19+user5_task10_time20+user5_task10_time21+user5_task10_time22+user5_task10_time23=1;
0<=user1_task1_time20<=1;
0<=user1_task1_time21<=1;
0<=user1_task1_time22<=1;
0<=user1_task1_time23<=1;
0<=user1_task2_time18<=1;
0<=user1_task2_time19<=1;
0<=user1_task2_time20<=1;
0<=user1_task2_time21<=1;
0<=user1_task2_time22<=1;
0<=user1_task2_time23<=1;
0<=user1_task3_time19<=1;
0<=user1_task3_time20<=1;
0<=user1_task3_time21<=1;
0<=user1_task4_time12<=1;
0<=user1_task4_time13<=1;
0<=user1_task4_time14<=1;
0<=user1_task4_time15<=1;
0<=user1_task4_time16<=1;
0<=user1_task4_time17<=1;
0<=user1_task4_time18<=1;
0<=user1_task4_time19<=1;
0<=user1_task4_time20<=1;
0<=user1_task5_time6<=1;
0<=user1_task5_time7<=1;
0<=user1_task5_time8<=1;
0<=user1_task5_time9<=1;
0<=user1_task5_time10<=1;
0<=user1_task5_time11<=1;
0<=user1_task5_time12<=1;
0<=user1_task6_time18<=1;
0<=user1_task6_time19<=1;
0<=user1_task6_time20<=1;
0<=user1_task7_time4<=1;
0<=user1_task7_time5<=1;
0<=user1_task7_time6<=1;
0<=user1_task7_time7<=1;
0<=user1_task7_time8<=1;
0<=user1_task7_time9<=1;
0<=user1_task7_time10<=1;
0<=user1_task8_time12<=1;
0<=user1_task8_time13<=1;
0<=user1_task8_time14<=1;
0<=user1_task8_time15<=1;
0<=user1_task8_time16<=1;
0<=user1_task8_time17<=1;
0<=user1_task8_time18<=1;
0<=user1_task9_time7<=1;
0<=user1_task9_time8<=1;
0<=user1_task9_time9<=1;
0<=user1_task9_time10<=1;
0<=user1_task9_time11<=1;
0<=user1_task9_time12<=1;
0<=user1_task9_time13<=1;
0<=user1_task9_time14<=1;
0<=user1_task10_time8<=1;
0<=user1_task10_time9<=1;
0<=user1_task10_time10<=1;
0<=user1_task10_time11<=1;
0<=user1_task10_time12<=1;
0<=user1_task10_time13<=1;
0<=user1_task10_time14<=1;
0<=user2_task1_time11<=1;
0<=user2_task1_time12<=1;
0<=user2_task1_time13<=1;
0<=user2_task1_time14<=1;
0<=user2_task1_time15<=1;
0<=user2_task1_time16<=1;
0<=user2_task1_time17<=1;
0<=user2_task1_time18<=1;
0<=user2_task1_time19<=1;
0<=user2_task1_time20<=1;
0<=user2_task1_time21<=1;
0<=user2_task1_time22<=1;
0<=user2_task2_time5<=1;
0<=user2_task2_time6<=1;
0<=user2_task2_time7<=1;
0<=user2_task2_time8<=1;
0<=user2_task2_time9<=1;
0<=user2_task2_time10<=1;
0<=user2_task2_time11<=1;
0<=user2_task3_time5<=1;
0<=user2_task3_time6<=1;
0<=user2_task3_time7<=1;
0<=user2_task3_time8<=1;
0<=user2_task3_time9<=1;
0<=user2_task3_time10<=1;
0<=user2_task3_time11<=1;
0<=user2_task3_time12<=1;
0<=user2_task3_time13<=1;
0<=user2_task3_time14<=1;
0<=user2_task3_time15<=1;
0<=user2_task3_time16<=1;
0<=user2_task3_time17<=1;
0<=user2_task3_time18<=1;
0<=user2_task3_time19<=1;
0<=user2_task3_time20<=1;
0<=user2_task3_time21<=1;
0<=user2_task3_time22<=1;
0<=user2_task3_time23<=1;
0<=user2_task4_time6<=1;
0<=user2_task4_time7<=1;
0<=user2_task4_time8<=1;
0<=user2_task4_time9<=1;
0<=user2_task4_time10<=1;
0<=user2_task4_time11<=1;
0<=user2_task4_time12<=1;
0<=user2_task4_time13<=1;
0<=user2_task4_time14<=1;
0<=user2_task4_time15<=1;
0<=user2_task4_time16<=1;
0<=user2_task4_time17<=1;
0<=user2_task4_time18<=1;
0<=user2_task4_time19<=1;
0<=user2_task4_time20<=1;
0<=user2_task5_time19<=1;
0<=user2_task6_time18<=1;
0<=user2_task6_time19<=1;
0<=user2_task6_time20<=1;
0<=user2_task6_time21<=1;
0<=user2_task7_time3<=1;
0<=user2_task7_time4<=1;
0<=user2_task7_time5<=1;
0<=user2_task7_time6<=1;
0<=user2_task7_time7<=1;
0<=user2_task7_time8<=1;
0<=user2_task7_time9<=1;
0<=user2_task7_time10<=1;
0<=user2_task7_time11<=1;
0<=user2_task7_time12<=1;
0<=user2_task7_time13<=1;
0<=user2_task7_time14<=1;
0<=user2_task7_time15<=1;
0<=user2_task7_time16<=1;
0<=user2_task7_time17<=1;
0<=user2_task7_time18<=1;
0<=user2_task7_time19<=1;
0<=user2_task7_time20<=1;
0<=user2_task7_time21<=1;
0<=user2_task7_time22<=1;
0<=user2_task7_time23<=1;
0<=user2_task8_time21<=1;
0<=user2_task8_time22<=1;
0<=user2_task8_time23<=1;
0<=user2_task9_time13<=1;
0<=user2_task9_time14<=1;
0<=user2_task9_time15<=1;
0<=user2_task9_time16<=1;
0<=user2_task9_time17<=1;
0<=user2_task10_time6<=1;
0<=user2_task10_time7<=1;
0<=user2_task10_time8<=1;
0<=user2_task10_time9<=1;
0<=user2_task10_time10<=1;
0<=user2_task10_time11<=1;
0<=user3_task1_time20<=1;
0<=user3_task1_time21<=1;
0<=user3_task1_time22<=1;
0<=user3_task1_time23<=1;
0<=user3_task2_time15<=1;
0<=user3_task2_time16<=1;
0<=user3_task2_time17<=1;
0<=user3_task2_time18<=1;
0<=user3_task2_time19<=1;
0<=user3_task2_time20<=1;
0<=user3_task2_time21<=1;
0<=user3_task3_time11<=1;
0<=user3_task3_time12<=1;
0<=user3_task3_time13<=1;
0<=user3_task3_time14<=1;
0<=user3_task3_time15<=1;
0<=user3_task4_time2<=1;
0<=user3_task4_time3<=1;
0<=user3_task4_time4<=1;
0<=user3_task4_time5<=1;
0<=user3_task4_time6<=1;
0<=user3_task4_time7<=1;
0<=user3_task4_time8<=1;
0<=user3_task4_time9<=1;
0<=user3_task4_time10<=1;
0<=user3_task4_time11<=1;
0<=user3_task4_time12<=1;
0<=user3_task4_time13<=1;
0<=user3_task4_time14<=1;
0<=user3_task4_time15<=1;
0<=user3_task4_time16<=1;
0<=user3_task4_time17<=1;
0<=user3_task5_time13<=1;
0<=user3_task5_time14<=1;
0<=user3_task5_time15<=1;
0<=user3_task5_time16<=1;
0<=user3_task6_time10<=1;
0<=user3_task6_time11<=1;
0<=user3_task6_time12<=1;
0<=user3_task6_time13<=1;
0<=user3_task6_time14<=1;
0<=user3_task6_time15<=1;
0<=user3_task6_time16<=1;
0<=user3_task6_time17<=1;
0<=user3_task6_time18<=1;
0<=user3_task7_time21<=1;
0<=user3_task7_time22<=1;
0<=user3_task7_time23<=1;
0<=user3_task8_time20<=1;
0<=user3_task8_time21<=1;
0<=user3_task8_time22<=1;
0<=user3_task8_time23<=1;
0<=user3_task9_time7<=1;
0<=user3_task9_time8<=1;
0<=user3_task9_time9<=1;
0<=user3_task9_time10<=1;
0<=user3_task9_time11<=1;
0<=user3_task9_time12<=1;
0<=user3_task9_time13<=1;
0<=user3_task9_time14<=1;
0<=user3_task9_time15<=1;
0<=user3_task9_time16<=1;
0<=user3_task9_time17<=1;
0<=user3_task9_time18<=1;
0<=user3_task9_time19<=1;
0<=user3_task9_time20<=1;
0<=user3_task9_time21<=1;
0<=user3_task10_time0<=1;
0<=user3_task10_time1<=1;
0<=user3_task10_time2<=1;
0<=user3_task10_time3<=1;
0<=user3_task10_time4<=1;
0<=user3_task10_time5<=1;
0<=user3_task10_time6<=1;
0<=user3_task10_time7<=1;
0<=user4_task1_time1<=1;
0<=user4_task1_time2<=1;
0<=user4_task1_time3<=1;
0<=user4_task1_time4<=1;
0<=user4_task1_time5<=1;
0<=user4_task1_time6<=1;
0<=user4_task1_time7<=1;
0<=user4_task1_time8<=1;
0<=user4_task2_time11<=1;
0<=user4_task2_time12<=1;
0<=user4_task2_time13<=1;
0<=user4_task2_time14<=1;
0<=user4_task2_time15<=1;
0<=user4_task2_time16<=1;
0<=user4_task2_time17<=1;
0<=user4_task2_time18<=1;
0<=user4_task2_time19<=1;
0<=user4_task2_time20<=1;
0<=user4_task3_time12<=1;
0<=user4_task3_time13<=1;
0<=user4_task3_time14<=1;
0<=user4_task3_time15<=1;
0<=user4_task3_time16<=1;
0<=user4_task3_time17<=1;
0<=user4_task3_time18<=1;
0<=user4_task3_time19<=1;
0<=user4_task4_time11<=1;
0<=user4_task4_time12<=1;
0<=user4_task4_time13<=1;
0<=user4_task4_time14<=1;
0<=user4_task4_time15<=1;
0<=user4_task4_time16<=1;
0<=user4_task5_time16<=1;
0<=user4_task5_time17<=1;
0<=user4_task5_time18<=1;
0<=user4_task6_time19<=1;
0<=user4_task6_time20<=1;
0<=user4_task6_time21<=1;
0<=user4_task6_time22<=1;
0<=user4_task6_time23<=1;
0<=user4_task7_time22<=1;
0<=user4_task7_time23<=1;
0<=user4_task8_time12<=1;
0<=user4_task8_time13<=1;
0<=user4_task8_time14<=1;
0<=user4_task8_time15<=1;
0<=user4_task8_time16<=1;
0<=user4_task8_time17<=1;
0<=user4_task8_time18<=1;
0<=user4_task8_time19<=1;
0<=user4_task9_time8<=1;
0<=user4_task9_time9<=1;
0<=user4_task9_time10<=1;
0<=user4_task9_time11<=1;
0<=user4_task9_time12<=1;
0<=user4_task9_time13<=1;
0<=user4_task9_time14<=1;
0<=user4_task9_time15<=1;
0<=user4_task9_time16<=1;
0<=user4_task9_time17<=1;
0<=user4_task9_time18<=1;
0<=user4_task9_time19<=1;
0<=user4_task9_time20<=1;
0<=user4_task10_time4<=1;
0<=user4_task10_time5<=1;
0<=user4_task10_time6<=1;
0<=user4_task10_time7<=1;
0<=user4_task10_time8<=1;
0<=user4_task10_time9<=1;
0<=user4_task10_time10<=1;
0<=user4_task10_time11<=1;
0<=user4_task10_time12<=1;
0<=user5_task1_time4<=1;
0<=user5_task1_time5<=1;
0<=user5_task1_time6<=1;
0<=user5_task1_time7<=1;
0<=user5_task1_time8<=1;
0<=user5_task1_time9<=1;
0<=user5_task1_time10<=1;
0<=user5_task1_time11<=1;
0<=user5_task1_time12<=1;
0<=user5_task1_time13<=1;
0<=user5_task1_time14<=1;
0<=user5_task1_time15<=1;
0<=user5_task1_time16<=1;
0<=user5_task1_time17<=1;
0<=user5_task1_time18<=1;
0<=user5_task1_time19<=1;
0<=user5_task1_time20<=1;
0<=user5_task2_time18<=1;
0<=user5_task2_time19<=1;
0<=user5_task2_time20<=1;
0<=user5_task2_time21<=1;
0<=user5_task2_time22<=1;
0<=user5_task3_time4<=1;
0<=user5_task3_time5<=1;
0<=user5_task3_time6<=1;
0<=user5_task3_time7<=1;
0<=user5_task3_time8<=1;
0<=user5_task3_time9<=1;
0<=user5_task3_time10<=1;
0<=user5_task3_time11<=1;
0<=user5_task3_time12<=1;
0<=user5_task3_time13<=1;
0<=user5_task3_time14<=1;
0<=user5_task3_time15<=1;
0<=user5_task3_time16<=1;
0<=user5_task4_time2<=1;
0<=user5_task4_time3<=1;
0<=user5_task4_time4<=1;
0<=user5_task4_time5<=1;
0<=user5_task4_time6<=1;
0<=user5_task4_time7<=1;
0<=user5_task4_time8<=1;
0<=user5_task4_time9<=1;
0<=user5_task4_time10<=1;
0<=user5_task4_time11<=1;
0<=user5_task4_time12<=1;
0<=user5_task4_time13<=1;
0<=user5_task4_time14<=1;
0<=user5_task4_time15<=1;
0<=user5_task4_time16<=1;
0<=user5_task5_time16<=1;
0<=user5_task5_time17<=1;
0<=user5_task5_time18<=1;
0<=user5_task5_time19<=1;
0<=user5_task5_time20<=1;
0<=user5_task5_time21<=1;
0<=user5_task5_time22<=1;
0<=user5_task5_time23<=1;
0<=user5_task6_time6<=1;
0<=user5_task6_time7<=1;
0<=user5_task6_time8<=1;
0<=user5_task6_time9<=1;
0<=user5_task6_time10<=1;
0<=user5_task6_time11<=1;
0<=user5_task6_time12<=1;
0<=user5_task6_time13<=1;
0<=user5_task6_time14<=1;
0<=user5_task6_time15<=1;
0<=user5_task6_time16<=1;
0<=user5_task6_time17<=1;
0<=user5_task6_time18<=1;
0<=user5_task7_time2<=1;
0<=user5_task7_time3<=1;
0<=user5_task7_time4<=1;
0<=user5_task7_time5<=1;
0<=user5_task7_time6<=1;
0<=user5_task8_time13<=1;
0<=user5_task8_time14<=1;
0<=user5_task8_time15<=1;
0<=user5_task8_time16<=1;
0<=user5_task8_time17<=1;
0<=user5_task9_time15<=1;
0<=user5_task9_time16<=1;
0<=user5_task9_time17<=1;
0<=user5_task9_time18<=1;
0<=user5_task9_time19<=1;
0<=user5_task9_time20<=1;
0<=user5_task9_time21<=1;
0<=user5_task9_time22<=1;
0<=user5_task9_time23<=1;
0<=user5_task10_time17<=1;
0<=user5_task10_time18<=1;
0<=user5_task10_time19<=1;
0<=user5_task10_time20<=1;
0<=user5_task10_time21<=1;
0<=user5_task10_time22<=1;
0<=user5_task10_time23<=1;

/* Variable bounds */